(set-option :print-success false)
(set-logic QF_UF)
(declare-sort x10 0)
(declare-fun x71 () x10)
(declare-fun x24 () x10)
(declare-fun x233 () x10)
(declare-fun x140 () x10)
(declare-fun x117 () x10)
(declare-fun x96 () x10)
(declare-fun x204 () x10)
(declare-fun x238 () x10)
(declare-fun x92 () x10)
(declare-fun x242 () x10)
(declare-fun x88 () x10)
(declare-fun x158 () x10)
(declare-fun x234 () x10)
(declare-fun x106 () x10)
(declare-fun x207 () x10)
(declare-fun x141 () x10)
(declare-fun x108 () x10)
(declare-fun x223 () x10)
(declare-fun x177 () x10)
(declare-fun x182 () x10)
(declare-fun x91 () x10)
(declare-fun x45 () x10)
(declare-fun x144 () x10)
(declare-fun x52 () x10)
(declare-fun x38 () x10)
(declare-fun x167 () x10)
(declare-fun x9 () x10)
(declare-fun x28 () x10)
(declare-fun x220 () x10)
(declare-fun x151 () x10)
(declare-fun x169 () x10)
(declare-fun x42 () x10)
(declare-fun x78 () x10)
(declare-fun x116 () x10)
(declare-fun x7 () x10)
(declare-fun x37 () x10)
(declare-fun x232 () x10)
(declare-fun x23 () x10)
(declare-fun x56 () x10)
(declare-fun x162 () x10)
(declare-fun x192 () x10)
(declare-fun x85 () x10)
(declare-fun x61 () x10)
(declare-fun x59 () x10)
(declare-fun x206 () x10)
(declare-fun x157 () x10)
(declare-fun x168 () x10)
(declare-fun x155 () x10)
(declare-fun x43 () x10)
(declare-fun x165 () x10)
(declare-fun x146 () x10)
(declare-fun x111 () x10)
(declare-fun x89 () x10)
(declare-fun x132 () x10)
(declare-fun x95 () x10)
(declare-fun x224 () x10)
(declare-fun x219 () x10)
(declare-fun x145 () x10)
(declare-fun x2 () x10)
(declare-fun x148 () x10)
(declare-fun x83 () x10)
(declare-fun x180 () x10)
(declare-fun x82 () x10)
(declare-fun x54 () x10)
(declare-fun x164 () x10)
(declare-fun x217 () x10)
(declare-fun x102 () x10)
(declare-fun x225 () x10)
(declare-fun x138 () x10)
(declare-fun x86 () x10)
(declare-fun x119 () x10)
(declare-fun x81 () x10)
(declare-fun x104 () x10)
(declare-fun x98 () x10)
(declare-fun x73 () x10)
(declare-fun x110 () x10)
(declare-fun x105 () x10)
(declare-fun x47 () x10)
(declare-fun x75 () x10)
(declare-fun x218 () x10)
(declare-fun x64 () x10)
(declare-fun x109 () x10)
(declare-fun x154 () x10)
(declare-fun x123 () x10)
(declare-fun x159 () x10)
(declare-fun x103 () x10)
(declare-fun x128 () x10)
(declare-fun x48 () x10)
(declare-fun x191 () x10)
(declare-fun x241 () x10)
(declare-fun x94 () x10)
(declare-fun x97 () x10)
(declare-fun x203 () x10)
(declare-fun x137 () x10)
(declare-fun x147 () x10)
(declare-fun x201 () x10)
(declare-fun x166 () x10)
(declare-fun x74 () x10)
(declare-fun x183 () x10)
(declare-fun x55 () x10)
(declare-fun x34 () x10)
(declare-fun x231 () x10)
(declare-fun x40 () x10)
(declare-fun x173 () x10)
(declare-fun x227 () x10)
(declare-fun x194 () x10)
(declare-fun x130 () x10)
(declare-fun x112 () x10)
(declare-fun x210 () x10)
(declare-fun x202 () x10)
(declare-fun x115 () x10)
(declare-fun x163 () x10)
(declare-fun x193 () x10)
(declare-fun x26 () x10)
(declare-fun x222 () x10)
(declare-fun x136 () x10)
(declare-fun x212 () x10)
(declare-fun x246 () x10)
(declare-fun x80 () x10)
(declare-fun x49 () x10)
(declare-fun x133 () x10)
(declare-fun x114 () x10)
(declare-fun x198 () x10)
(declare-fun x243 () x10)
(declare-fun x172 () x10)
(declare-fun x20 () x10)
(declare-fun x171 () x10)
(declare-fun x205 () x10)
(declare-fun x184 () x10)
(declare-fun x245 () x10)
(declare-fun x27 () x10)
(declare-fun x118 () x10)
(declare-fun x195 () x10)
(declare-fun x189 () x10)
(declare-fun x228 () x10)
(declare-fun x30 () x10)
(declare-fun x197 () x10)
(declare-fun x142 () x10)
(declare-fun x160 () x10)
(declare-fun x244 () x10)
(declare-fun x215 () x10)
(declare-fun x176 () x10)
(declare-fun x11 () x10)
(declare-fun x50 () x10)
(declare-fun x240 () x10)
(declare-fun x12 () x10)
(declare-fun x190 () x10)
(declare-fun x120 () x10)
(declare-fun x230 () x10)
(declare-fun x239 () x10)
(declare-fun x134 () x10)
(declare-fun x1 () x10)
(declare-fun x14 () x10)
(declare-fun x36 () x10)
(declare-fun x186 () x10)
(declare-fun x68 () x10)
(declare-fun x181 () x10)
(declare-fun x25 () x10)
(declare-fun x18 () x10)
(declare-fun x131 () x10)
(declare-fun x196 () x10)
(declare-fun x41 () x10)
(declare-fun x57 () x10)
(declare-fun x84 () x10)
(declare-fun x214 () x10)
(declare-fun x62 () x10)
(declare-fun x101 () x10)
(declare-fun x211 () x10)
(declare-fun x127 () x10)
(declare-fun x90 () x10)
(declare-fun x33 () x10)
(declare-fun x153 () x10)
(declare-fun x216 () x10)
(declare-fun x199 () x10)
(declare-fun x32 () x10)
(declare-fun x174 () x10)
(declare-fun x187 () x10)
(declare-fun x65 () x10)
(declare-fun x99 () x10)
(declare-fun x229 () x10)
(declare-fun x107 () x10)
(declare-fun x87 () x10)
(declare-fun x4 () x10)
(declare-fun x150 () x10)
(declare-fun x21 () x10)
(declare-fun x178 () x10)
(declare-fun x17 () x10)
(declare-fun x135 () x10)
(declare-fun x8 () x10)
(declare-fun x170 () x10)
(declare-fun x66 () x10)
(declare-fun x226 () x10)
(declare-fun x100 () x10)
(declare-fun x44 () x10)
(declare-fun x121 () x10)
(declare-fun x221 () x10)
(declare-fun x129 () x10)
(declare-fun x208 () x10)
(declare-fun x16 () x10)
(declare-fun x143 () x10)
(declare-fun x179 () x10)
(declare-fun x237 () x10)
(declare-fun x5 () x10)
(declare-fun x6 () x10)
(declare-fun x79 () x10)
(declare-fun x35 () x10)
(declare-fun x235 () x10)
(declare-fun x58 () x10)
(declare-fun x63 () x10)
(declare-fun x46 () x10)
(declare-fun x70 () x10)
(declare-fun x122 () x10)
(declare-fun x200 () x10)
(declare-fun x161 () x10)
(declare-fun x185 () x10)
(declare-fun x39 () x10)
(declare-fun x156 () x10)
(declare-fun x209 () x10)
(declare-fun x53 () x10)
(declare-fun x77 () x10)
(declare-fun x126 () x10)
(declare-fun x72 () x10)
(declare-fun x3 () x10)
(declare-fun x51 () x10)
(declare-fun x236 () x10)
(declare-fun x175 () x10)
(declare-fun x31 () x10)
(declare-fun x124 () x10)
(declare-fun x76 () x10)
(declare-fun x139 () x10)
(declare-fun x149 () x10)
(declare-fun x213 () x10)
(declare-fun x29 () x10)
(declare-fun x67 () x10)
(declare-fun x93 () x10)
(declare-fun x60 () x10)
(declare-fun x152 () x10)
(declare-fun x15 () x10)
(declare-fun x13 () x10)
(declare-fun x113 () x10)
(declare-fun x125 () x10)
(declare-fun x247 () x10)
(declare-fun x19 () x10)
(declare-fun x188 () x10)
(declare-fun x22 () x10)
(declare-fun x69 () x10)
(assert (and (or (and (= x195 x5) (= x24 x195)) (and (= x5 x100) (= x24 x100))) (or (and (= x107 x168) (= x168 x82)) (and (= x82 x2) (= x107 x2))) (or (and (= x53 x162) (= x162 x32)) (and (= x53 x9) (= x32 x9))) (or (and (= x165 x3) (= x165 x110)) (and (= x3 x202) (= x202 x110))) (or (and (= x208 x108) (= x108 x166)) (and (= x97 x166) (= x97 x208))) (or (and (= x161 x14) (= x14 x204)) (and (= x146 x204) (= x146 x161))) (or (and (= x12 x140) (= x12 x13)) (and (= x169 x140) (= x169 x13))) (or (and (= x71 x220) (= x220 x76)) (and (= x55 x71) (= x76 x55))) (or (and (= x227 x22) (= x22 x191)) (and (= x188 x191) (= x227 x188))) (or (and (= x218 x210) (= x218 x154)) (and (= x154 x67) (= x67 x210))) (or (and (= x242 x229) (= x242 x124)) (and (= x196 x124) (= x196 x229))) (or (and (= x163 x245) (= x24 x245)) (and (= x24 x179) (= x179 x163))) (or (and (= x64 x163) (= x64 x42)) (and (= x34 x42) (= x34 x163))) (or (and (= x90 x132) (= x132 x95)) (and (= x95 x111) (= x111 x90))) (or (and (= x172 x187) (= x156 x187)) (and (= x143 x156) (= x172 x143))) (or (and (= x62 x225) (= x159 x225)) (and (= x145 x62) (= x145 x159))) (or (and (= x110 x149) (= x149 x6)) (and (= x40 x110) (= x40 x6))) (or (and (= x171 x139) (= x58 x139)) (and (= x28 x171) (= x28 x58))) (or (and (= x128 x240) (= x116 x240)) (and (= x128 x241) (= x116 x241))) (or (and (= x35 x7) (= x92 x7)) (and (= x35 x8) (= x8 x92))) (or (and (= x15 x82) (= x15 x21)) (and (= x82 x122) (= x21 x122))) (or (and (= x214 x89) (= x214 x80)) (and (= x209 x80) (= x89 x209))) (or (and (= x104 x212) (= x3 x104)) (and (= x193 x212) (= x193 x3))) (or (and (= x153 x113) (= x80 x153)) (and (= x80 x23) (= x23 x113))) (or (and (= x19 x78) (= x19 x129)) (and (= x184 x129) (= x184 x78))) (or (and (= x236 x50) (= x236 x129)) (and (= x221 x50) (= x221 x129))) (or (and (= x154 x223) (= x216 x223)) (and (= x17 x216) (= x17 x154))) (or (and (= x83 x185) (= x83 x182)) (and (= x185 x148) (= x182 x148))) (or (and (= x135 x136) (= x166 x135)) (and (= x136 x192) (= x192 x166))) (or (and (= x113 x115) (= x81 x115)) (and (= x113 x79) (= x79 x81))) (or (and (= x160 x120) (= x120 x35)) (and (= x160 x181) (= x181 x35))) (or (and (= x119 x85) (= x235 x119)) (and (= x235 x206) (= x85 x206))) (or (and (= x182 x205) (= x205 x73)) (and (= x182 x231) (= x73 x231))) (or (and (= x60 x164) (= x5 x164)) (and (= x60 x39) (= x5 x39))) (or (and (= x106 x30) (= x102 x106)) (and (= x102 x11) (= x11 x30))) (or (and (= x27 x74) (= x121 x27)) (and (= x200 x74) (= x121 x200))) (or (and (= x171 x237) (= x107 x237)) (and (= x107 x151) (= x171 x151))) (or (and (= x224 x45) (= x71 x45)) (and (= x224 x96) (= x96 x71))) (or (and (= x41 x185) (= x204 x41)) (and (= x204 x152) (= x152 x185))) (or (and (= x226 x232) (= x232 x173)) (and (= x222 x173) (= x226 x222))) (or (and (= x134 x66) (= x229 x134)) (and (= x117 x66) (= x117 x229))) (or (and (= x130 x112) (= x54 x130)) (and (= x112 x244) (= x54 x244))) (or (and (= x29 x6) (= x42 x29)) (and (= x6 x215) (= x215 x42))) (or (and (= x197 x156) (= x197 x61)) (and (= x61 x52) (= x52 x156))) (or (and (= x211 x103) (= x21 x211)) (and (= x103 x158) (= x158 x21))) (not (= x30 x20)) (or (and (= x174 x59) (= x190 x59)) (and (= x190 x56) (= x56 x174))) (or (and (= x199 x173) (= x102 x199)) (and (= x173 x180) (= x102 x180))) (or (and (= x136 x25) (= x161 x25)) (and (= x136 x186) (= x161 x186))) (or (and (= x226 x77) (= x77 x247)) (and (= x201 x226) (= x201 x247))) (or (and (= x142 x36) (= x73 x36)) (and (= x37 x142) (= x37 x73))) (or (and (= x167 x87) (= x4 x167)) (and (= x4 x75) (= x75 x87))) (or (and (= x170 x127) (= x127 x208)) (and (= x31 x208) (= x170 x31))) (or (and (= x155 x38) (= x54 x155)) (and (= x38 x141) (= x54 x141))) (or (and (= x33 x116) (= x234 x33)) (and (= x114 x234) (= x116 x114))) (or (and (= x176 x86) (= x176 x234)) (and (= x133 x234) (= x86 x133))) (or (and (= x121 x63) (= x174 x63)) (and (= x121 x118) (= x118 x174))) (or (and (= x84 x90) (= x112 x84)) (and (= x207 x112) (= x90 x207))) (or (and (= x20 x68) (= x138 x68)) (and (= x47 x20) (= x138 x47))) (or (and (= x123 x172) (= x123 x53)) (and (= x219 x172) (= x53 x219))) (or (and (= x217 x87) (= x140 x217)) (and (= x87 x213) (= x140 x213))) (or (and (= x183 x13) (= x50 x183)) (and (= x189 x50) (= x189 x13))) (or (and (= x89 x18) (= x137 x18)) (and (= x43 x89) (= x43 x137))) (or (and (= x48 x128) (= x48 x170)) (and (= x239 x128) (= x239 x170))) (or (and (= x70 x60) (= x124 x70)) (and (= x16 x124) (= x16 x60))) (or (and (= x160 x246) (= x61 x246)) (and (= x61 x243) (= x160 x243))) (or (and (= x26 x95) (= x86 x26)) (and (= x95 x203) (= x86 x203))) (or (and (= x138 x101) (= x92 x101)) (and (= x92 x177) (= x138 x177))) (or (and (= x159 x65) (= x32 x65)) (and (= x1 x32) (= x159 x1))) (or (and (= x157 x190) (= x157 x216)) (and (= x216 x57) (= x57 x190))) (or (and (= x125 x62) (= x103 x125)) (and (= x94 x62) (= x94 x103))) (or (and (= x49 x58) (= x49 x51)) (and (= x58 x198) (= x51 x198))) (or (and (= x233 x38) (= x212 x233)) (and (= x93 x38) (= x212 x93))) (or (and (= x66 x230) (= x88 x230)) (and (= x238 x66) (= x88 x238))) (or (and (= x191 x91) (= x224 x91)) (and (= x191 x178) (= x178 x224))) (or (and (= x88 x99) (= x99 x85)) (and (= x85 x109) (= x109 x88))) (or (and (= x142 x131) (= x81 x131)) (and (= x228 x142) (= x228 x81))) (or (and (= x105 x235) (= x4 x105)) (and (= x235 x150) (= x150 x4))) (or (and (= x69 x227) (= x78 x69)) (and (= x227 x126) (= x126 x78))) (or (and (= x74 x194) (= x76 x194)) (and (= x147 x76) (= x147 x74))) (or (and (= x210 x98) (= x247 x98)) (and (= x247 x44) (= x44 x210))) (or (and (= x51 x46) (= x46 x137)) (and (= x72 x51) (= x72 x137)))))
(check-sat)
(exit)
